n_res = 4;
rc = [ 12, 24, 19, 19 ];
n_tasks = 30;
d = [ 1, 5, 7, 10, 1, 5, 1, 5, 9, 3, 7, 4, 2, 7, 6, 7, 8, 8, 8, 4, 5, 3, 5, 10, 3, 4, 3, 1, 3, 1 ];
rr = [| 2, 2, 6, 0, 0, 0, 6, 0, 0, 1, 2, 0, 7, 4, 0, 3, 10, 3, 0, 0, 0, 0, 0, 0, 4, 7, 0, 0, 0, 0
      | 0, 8, 7, 0, 8, 5, 0, 3, 0, 9, 10, 0, 10, 7, 7, 10, 0, 0, 4, 1, 0, 2, 1, 0, 0, 0, 1, 2, 0, 7
      | 9, 3, 0, 1, 0, 0, 0, 1, 0, 7, 0, 3, 0, 3, 9, 7, 10, 0, 6, 1, 4, 0, 10, 3, 1, 0, 3, 0, 6, 0
      | 0, 0, 0, 0, 0, 0, 6, 0, 10, 0, 8, 0, 0, 1, 0, 10, 10, 6, 0, 6, 0, 7, 0, 2, 3, 0, 0, 0, 6, 0 |];
suc = [ { 2 }, 
        { 1 }, 
        { 4 }, 
        { 3 }, 
        { 6 }, 
        { 5 }, 
        { 8 }, 
        { 7 }, 
        { 10 }, 
        { 9 }, 
        { 12 }, 
        { 11 }, 
        { 14 }, 
        { 13 }, 
        { 16 }, 
        { 15 }, 
        { 18 }, 
        { 17 }, 
        { 20 }, 
        { 19 }, 
        { 22 }, 
        { 21 }, 
        { 24 }, 
        { 23 }, 
        { 26 }, 
        { 25 }, 
        { 28 }, 
        { 27 }, 
        { 30 }, 
        { 29 }]; 
